
Welcome to IBM(R) ILOG(R) CPLEX(R) Interactive Optimizer 22.1.1.0
  with Simplex, Mixed Integer & Barrier Optimizers
5725-A06 5725-A29 5724-Y48 5724-Y49 5724-Y54 5724-Y55 5655-Y21
Copyright IBM Corp. 1988, 2022.  All Rights Reserved.

Type 'help' for a list of available commands.
Type 'help' followed by a command name for more
information on commands.

CPLEX> Selected objective sense:  MINIMIZE
Selected objective  name:  00000000
Selected RHS        name:  RHS1
Selected bound      name:  BOUND
Problem 'ee.mps' read.
Read time = 0.02 sec. (3.14 ticks)
CPLEX> New value for time limit in seconds: 7200
CPLEX> New value for parallel optimization mode: -1
CPLEX> New value for default parallel thread count: 40
CPLEX> New value for mixed integer optimality gap tolerance: 1e-13
CPLEX> Version identifier: 22.1.1.0 | 2022-11-28 | 9160aff4d
CPXPARAM_Threads                                 40
CPXPARAM_Parallel                                -1
CPXPARAM_TimeLimit                               7200
CPXPARAM_MIP_Tolerances_MIPGap                   1e-13
Found incumbent of value 0.000000 after 0.00 sec. (0.31 ticks)
Tried aggregator 2 times.
MIP Presolve eliminated 274 rows and 3331 columns.
MIP Presolve modified 5877 coefficients.
Aggregator did 873 substitutions.
Reduced MIP has 3370 rows, 6965 columns, and 25886 nonzeros.
Reduced MIP has 6965 binaries, 0 generals, 0 SOSs, and 0 indicators.
Presolve time = 0.07 sec. (70.02 ticks)
Probing fixed 24 vars, tightened 0 bounds.
Probing time = 0.06 sec. (28.77 ticks)
Tried aggregator 2 times.
Detecting symmetries...
MIP Presolve eliminated 26 rows and 44 columns.
Aggregator did 4 substitutions.
Reduced MIP has 3340 rows, 6911 columns, and 25712 nonzeros.
Reduced MIP has 6911 binaries, 0 generals, 0 SOSs, and 0 indicators.
Presolve time = 0.04 sec. (46.55 ticks)
Probing time = 0.02 sec. (5.05 ticks)
Clique table members: 16581.
MIP emphasis: balance optimality and feasibility.
MIP search method: dynamic search.
Parallel mode: opportunistic, using up to 40 threads.
Root relaxation solution time = 0.11 sec. (98.65 ticks)

        Nodes                                         Cuts/
   Node  Left     Objective  IInf  Best Integer    Best Bound    ItCnt     Gap

*     0+    0                            0.0000  -1.31000e+13              --- 
      0     0  -1.30900e+13    44        0.0000  -1.30900e+13     2171     --- 
*     0+    0                      -1.30900e+13  -1.30900e+13             0.00%
      0     0  -1.30900e+13    87  -1.30900e+13      Cuts: 46     2960    0.00%
*     0+    0                      -1.30900e+13  -1.30900e+13             0.00%
      0     0  -1.30900e+13    95  -1.30900e+13      Cuts: 62     3250    0.00%
*     0+    0                      -1.30900e+13  -1.30900e+13             0.00%
*     0+    0                      -1.30900e+13  -1.30900e+13             0.00%
      0    29        cutoff        -1.30900e+13  -1.30900e+13    11826    0.00%
Elapsed time = 2.16 sec. (1074.97 ticks, tree = 0.02 MB, solutions = 5)
    881    75        cutoff        -1.30900e+13  -1.30900e+13    23563    0.00%
   1663   158  -1.30900e+13    87  -1.30900e+13  -1.30900e+13    54093    0.00%
   2496   335        cutoff        -1.30900e+13  -1.30900e+13   104714    0.00%
   3977   583  -1.30900e+13   228  -1.30900e+13  -1.30900e+13   162159    0.00%
   5657   630  -1.30900e+13    36  -1.30900e+13  -1.30900e+13   174096    0.00%
   7322  2261  -1.30900e+13    98  -1.30900e+13  -1.30900e+13   430287    0.00%
   9024  1266  -1.30900e+13   278  -1.30900e+13  -1.30900e+13   265651    0.00%
  10524  2437  -1.30900e+13   132  -1.30900e+13  -1.30900e+13   468903    0.00%
  11933  2819  -1.30900e+13   181  -1.30900e+13  -1.30900e+13   548667    0.00%
  14971  3416  -1.30900e+13   254  -1.30900e+13  -1.30900e+13   665844    0.00%
Elapsed time = 6.62 sec. (4177.09 ticks, tree = 11.70 MB, solutions = 5)

Performing restart 1

Repeating presolve.
Tried aggregator 3 times.
MIP Presolve eliminated 1269 rows and 3018 columns.
MIP Presolve added 2 rows and 0 columns.
MIP Presolve modified 1729 coefficients.
Aggregator did 348 substitutions.
Reduced MIP has 1722 rows, 3516 columns, and 12503 nonzeros.
Reduced MIP has 3516 binaries, 0 generals, 0 SOSs, and 0 indicators.
Presolve time = 0.05 sec. (50.12 ticks)
Tried aggregator 2 times.
MIP Presolve eliminated 56 rows and 69 columns.
Aggregator did 5 substitutions.
Reduced MIP has 1661 rows, 3442 columns, and 12191 nonzeros.
Reduced MIP has 3442 binaries, 0 generals, 0 SOSs, and 0 indicators.
Presolve time = 0.02 sec. (20.76 ticks)
Tried aggregator 1 time.
MIP Presolve eliminated 20 rows and 14 columns.
Reduced MIP has 1641 rows, 3428 columns, and 12117 nonzeros.
Reduced MIP has 3428 binaries, 0 generals, 0 SOSs, and 0 indicators.
Presolve time = 0.01 sec. (14.06 ticks)
Represolve time = 0.20 sec. (133.73 ticks)
  15094     0  -1.30900e+13   154  -1.30900e+13      Cuts: 30   931877    0.00%
  15094     0  -1.30900e+13   140  -1.30900e+13      Cuts: 41   932064    0.00%
  15094     0  -1.30900e+13   153  -1.30900e+13      Cuts: 50   932315    0.00%
  15094     0  -1.30900e+13   202  -1.30900e+13      Cuts: 68   932472    0.00%
  15094     0  -1.30900e+13    47  -1.30900e+13      Cuts: 46   932544    0.00%
  15094     0  -1.30900e+13    90  -1.30900e+13      Cuts: 16   932618    0.00%
  15094     0  -1.30900e+13   219  -1.30900e+13      Cuts: 26   932737    0.00%
  15094     0  -1.30900e+13   258  -1.30900e+13      Cuts: 65   932989    0.00%
  15094     0  -1.30900e+13   273  -1.30900e+13      Cuts: 41   933105    0.00%
  15094     0  -1.30900e+13   270  -1.30900e+13      Cuts: 40   933234    0.00%

Repeating presolve.
Tried aggregator 3 times.
MIP Presolve eliminated 1250 rows and 2557 columns.
MIP Presolve modified 34 coefficients.
Aggregator did 76 substitutions.
Reduced MIP has 312 rows, 783 columns, and 2450 nonzeros.
Reduced MIP has 783 binaries, 0 generals, 0 SOSs, and 0 indicators.
Presolve time = 0.01 sec. (8.96 ticks)
Tried aggregator 1 time.
Reduced MIP has 312 rows, 783 columns, and 2450 nonzeros.
Reduced MIP has 783 binaries, 0 generals, 0 SOSs, and 0 indicators.
Presolve time = 0.00 sec. (1.63 ticks)
Represolve time = 0.05 sec. (40.79 ticks)
  15094     0  -1.30900e+13   244  -1.30900e+13      Cuts: 77   934221    0.00%
  15094     0  -1.30900e+13   216  -1.30900e+13      Cuts: 55   934298    0.00%
  15094     0  -1.30900e+13   243  -1.30900e+13      Cuts: 34   934443    0.00%
  15094     0  -1.30900e+13   190  -1.30900e+13      Cuts: 27   934510    0.00%
  15094     0  -1.30900e+13   135  -1.30900e+13      Cuts: 25   934582    0.00%
  15094     0  -1.30900e+13   252  -1.30900e+13      Cuts: 20   934617    0.00%
  15094     0  -1.30900e+13   255  -1.30900e+13      Cuts: 12   934647    0.00%
  15094     0  -1.30900e+13   243  -1.30900e+13      Cuts: 14   934674    0.00%
  15094     0        cutoff        -1.30900e+13  -1.30900e+13   934674    0.00%

GUB cover cuts applied:  2
Clique cuts applied:  26
Cover cuts applied:  160
Flow cuts applied:  1
Mixed integer rounding cuts applied:  14
Zero-half cuts applied:  53
Lift and project cuts applied:  1
Gomory fractional cuts applied:  7

Root node processing (before b&c):
  Real time             =    1.21 sec. (1063.77 ticks)
Parallel b&c, 40 threads:
  Real time             =    7.15 sec. (4798.66 ticks)
  Sync time (average)   =    0.41 sec.
  Wait time (average)   =    0.00 sec.
                          ------------
Total (root+branch&cut) =    8.36 sec. (5862.43 ticks)

Solution pool: 5 solutions saved.

MIP - Integer optimal solution:  Objective = -1.3089999490e+13
Solution time =    8.47 sec.  Iterations = 934674  Nodes = 15094
Deterministic time = 5862.46 ticks  (691.97 ticks/sec)

CPLEX> Solution 'p6' written to file 'ee.sol'.
CPLEX> 